Minimize
	value: tt

Subject to
tt + 1000 s_1_1 > 0.0
tt - t_1_1 - 1000.781076 s_1_1  + 0.781076 s_1_7  > -998.497600
tt + 1000 s_2_1 > 0.0
tt - t_2_1 - 1000.877381 s_2_1  + 0.877381 s_2_7  > -994.364643
tt + 1000 s_1_2 > 0.0
tt - t_1_2 - 1000.781076 s_1_2  + 0.781076 s_1_8  > -998.307867
tt + 1000 s_2_2 > 0.0
tt - t_2_2 - 1000.877381 s_2_2  + 0.877381 s_2_8  > -993.759072
tt + 1000 s_1_3 > 0.0
tt - t_1_3 - 1000.781076 s_1_3  + 0.781076 s_1_8  > -998.197300
tt + 1000 s_2_3 > 0.0
tt - t_2_3 - 1000.877381 s_2_3  + 0.877381 s_2_8  > -991.042689
tt + 1000 s_1_4 > 0.0
tt - t_1_4 - 1001.274874 s_1_4  + 0.781076 s_1_8  + 0.493798 s_1_3  > -999.156278
tt + 1000 s_2_4 > 0.0
tt - t_2_4 - 1001.445626 s_2_4  + 0.877381 s_2_8  + 0.568245 s_2_3  > -995.334781
tt + 1000 s_1_5 > 0.0
tt - t_1_5 - 1001.562152 s_1_5  + 0.781076 s_1_7  + 0.781076 s_1_8  > -998.570400
tt + 1000 s_2_5 > 0.0
tt - t_2_5 - 1001.754761 s_2_5  + 0.877381 s_2_7  + 0.877381 s_2_8  > -993.917447
tt + 1000 s_1_6 > 0.0
tt - t_1_6 - 1002.468990 s_1_6  + 0.493798 s_1_2  + 0.493798 s_1_4  + 0.493798 s_1_5  + 0.493798 s_1_3  + 0.493798 s_1_1  > -999.726000
tt + 1000 s_2_6 > 0.0
tt - t_2_6 - 1002.841225 s_2_6  + 0.568245 s_2_2  + 0.568245 s_2_4  + 0.568245 s_2_5  + 0.568245 s_2_3  + 0.568245 s_2_1  > -996.707200
tt + 1000 s_1_7 > 0.0
tt - t_1_7 - 1000.000000 s_1_7  > -997.048900
tt + 1000 s_2_7 > 0.0
tt - t_2_7 - 1000.000000 s_2_7  > -995.092700
tt + 1000 s_1_8 > 0.0
tt - t_1_8 - 1000.000000 s_1_8  > -996.824467
tt + 1000 s_2_8 > 0.0
tt - t_2_8 - 1000.000000 s_2_8  > -994.143200
s_1_1 + s_2_1 = 1
s_1_2 + s_2_2 = 1
s_1_3 + s_2_3 = 1
s_1_4 + s_2_4 = 1
s_1_5 + s_2_5 = 1
s_1_6 + s_2_6 = 1
s_1_7 + s_2_7 = 1
s_1_8 + s_2_8 = 1
s_1_1 + s_1_2 + 1000 r_1_1_2 >= 2
- s_1_1 - s_1_2 - 1000 r_1_1_2 >= -1001
t_1_1 - t_1_2 - 1000.000000 u_1_1_2 - 0.781076 s_1_2  + 0.781076 s_1_8  + 2000.000000 r_1_1_2 > -998.307867
s_2_1 + s_2_2 + 1000 r_2_1_2 >= 2
- s_2_1 - s_2_2 - 1000 r_2_1_2 >= -1001
t_2_1 - t_2_2 - 1000.000000 u_2_1_2 - 0.877381 s_2_2  + 0.877381 s_2_8  + 2000.000000 r_2_1_2 > -993.759072
s_1_1 + s_1_3 + 1000 r_1_1_3 >= 2
- s_1_1 - s_1_3 - 1000 r_1_1_3 >= -1001
t_1_1 - t_1_3 - 1000.000000 u_1_1_3 - 0.781076 s_1_3  + 0.781076 s_1_8  + 2000.000000 r_1_1_3 > -998.197300
s_2_1 + s_2_3 + 1000 r_2_1_3 >= 2
- s_2_1 - s_2_3 - 1000 r_2_1_3 >= -1001
t_2_1 - t_2_3 - 1000.000000 u_2_1_3 - 0.877381 s_2_3  + 0.877381 s_2_8  + 2000.000000 r_2_1_3 > -991.042689
s_1_1 + s_1_4 + 1000 r_1_1_4 >= 2
- s_1_1 - s_1_4 - 1000 r_1_1_4 >= -1001
t_1_1 - t_1_4 - 1000.000000 u_1_1_4 - 1.274874 s_1_4  + 0.781076 s_1_8  + 0.493798 s_1_3  + 2000.000000 r_1_1_4 > -999.156278
s_2_1 + s_2_4 + 1000 r_2_1_4 >= 2
- s_2_1 - s_2_4 - 1000 r_2_1_4 >= -1001
t_2_1 - t_2_4 - 1000.000000 u_2_1_4 - 1.445626 s_2_4  + 0.877381 s_2_8  + 0.568245 s_2_3  + 2000.000000 r_2_1_4 > -995.334781
s_1_1 + s_1_5 + 1000 r_1_1_5 >= 2
- s_1_1 - s_1_5 - 1000 r_1_1_5 >= -1001
t_1_1 - t_1_5 - 1000.000000 u_1_1_5 - 1.562152 s_1_5  + 0.781076 s_1_7  + 0.781076 s_1_8  + 2000.000000 r_1_1_5 > -998.570400
s_2_1 + s_2_5 + 1000 r_2_1_5 >= 2
- s_2_1 - s_2_5 - 1000 r_2_1_5 >= -1001
t_2_1 - t_2_5 - 1000.000000 u_2_1_5 - 1.754761 s_2_5  + 0.877381 s_2_7  + 0.877381 s_2_8  + 2000.000000 r_2_1_5 > -993.917447
t_1_6 - t_1_1 - 1000.781076 s_1_1  + 0.781076 s_1_7  > -998.497600
t_1_6 - t_2_1 - 1000.877381 s_2_1  + 0.877381 s_2_7  > -994.364643
t_2_6 - t_1_1 - 1000.781076 s_1_1  + 0.781076 s_1_7  > -998.497600
t_2_6 - t_2_1 - 1000.877381 s_2_1  + 0.877381 s_2_7  > -994.364643
t_1_1 - t_1_7 - 1000.000000 s_1_7  > -997.048900
t_1_1 - t_2_7 - 1000.000000 s_2_7  > -995.092700
t_2_1 - t_1_7 - 1000.000000 s_1_7  > -997.048900
t_2_1 - t_2_7 - 1000.000000 s_2_7  > -995.092700
s_1_1 + s_1_8 + 1000 r_1_1_8 >= 2
- s_1_1 - s_1_8 - 1000 r_1_1_8 >= -1001
t_1_1 - t_1_8 - 1000.000000 u_1_1_8 - 0.000000 s_1_8  + 2000.000000 r_1_1_8 > -996.824467
s_2_1 + s_2_8 + 1000 r_2_1_8 >= 2
- s_2_1 - s_2_8 - 1000 r_2_1_8 >= -1001
t_2_1 - t_2_8 - 1000.000000 u_2_1_8 - 0.000000 s_2_8  + 2000.000000 r_2_1_8 > -994.143200
s_1_2 + s_1_1 + 1000 r_1_1_2 >= 2
- s_1_2 - s_1_1 - 1000 r_1_1_2 >= -1001
t_1_2 - t_1_1 + 1000.000000 u_1_1_2 - 0.781076 s_1_1  + 0.781076 s_1_7  + 2000.000000 r_1_1_2 > 1.502400
s_2_2 + s_2_1 + 1000 r_2_1_2 >= 2
- s_2_2 - s_2_1 - 1000 r_2_1_2 >= -1001
t_2_2 - t_2_1 + 1000.000000 u_2_1_2 - 0.877381 s_2_1  + 0.877381 s_2_7  + 2000.000000 r_2_1_2 > 5.635357
s_1_2 + s_1_3 + 1000 r_1_2_3 >= 2
- s_1_2 - s_1_3 - 1000 r_1_2_3 >= -1001
t_1_2 - t_1_3 - 1000.000000 u_1_2_3 - 0.781076 s_1_3  + 0.781076 s_1_8  + 2000.000000 r_1_2_3 > -998.197300
s_2_2 + s_2_3 + 1000 r_2_2_3 >= 2
- s_2_2 - s_2_3 - 1000 r_2_2_3 >= -1001
t_2_2 - t_2_3 - 1000.000000 u_2_2_3 - 0.877381 s_2_3  + 0.877381 s_2_8  + 2000.000000 r_2_2_3 > -991.042689
s_1_2 + s_1_4 + 1000 r_1_2_4 >= 2
- s_1_2 - s_1_4 - 1000 r_1_2_4 >= -1001
t_1_2 - t_1_4 - 1000.000000 u_1_2_4 - 1.274874 s_1_4  + 0.781076 s_1_8  + 0.493798 s_1_3  + 2000.000000 r_1_2_4 > -999.156278
s_2_2 + s_2_4 + 1000 r_2_2_4 >= 2
- s_2_2 - s_2_4 - 1000 r_2_2_4 >= -1001
t_2_2 - t_2_4 - 1000.000000 u_2_2_4 - 1.445626 s_2_4  + 0.877381 s_2_8  + 0.568245 s_2_3  + 2000.000000 r_2_2_4 > -995.334781
s_1_2 + s_1_5 + 1000 r_1_2_5 >= 2
- s_1_2 - s_1_5 - 1000 r_1_2_5 >= -1001
t_1_2 - t_1_5 - 1000.000000 u_1_2_5 - 1.562152 s_1_5  + 0.781076 s_1_7  + 0.781076 s_1_8  + 2000.000000 r_1_2_5 > -998.570400
s_2_2 + s_2_5 + 1000 r_2_2_5 >= 2
- s_2_2 - s_2_5 - 1000 r_2_2_5 >= -1001
t_2_2 - t_2_5 - 1000.000000 u_2_2_5 - 1.754761 s_2_5  + 0.877381 s_2_7  + 0.877381 s_2_8  + 2000.000000 r_2_2_5 > -993.917447
t_1_6 - t_1_2 - 1000.781076 s_1_2  + 0.781076 s_1_8  > -998.307867
t_1_6 - t_2_2 - 1000.877381 s_2_2  + 0.877381 s_2_8  > -993.759072
t_2_6 - t_1_2 - 1000.781076 s_1_2  + 0.781076 s_1_8  > -998.307867
t_2_6 - t_2_2 - 1000.877381 s_2_2  + 0.877381 s_2_8  > -993.759072
s_1_2 + s_1_7 + 1000 r_1_2_7 >= 2
- s_1_2 - s_1_7 - 1000 r_1_2_7 >= -1001
t_1_2 - t_1_7 - 1000.000000 u_1_2_7 - 0.000000 s_1_7  + 2000.000000 r_1_2_7 > -997.048900
s_2_2 + s_2_7 + 1000 r_2_2_7 >= 2
- s_2_2 - s_2_7 - 1000 r_2_2_7 >= -1001
t_2_2 - t_2_7 - 1000.000000 u_2_2_7 - 0.000000 s_2_7  + 2000.000000 r_2_2_7 > -995.092700
t_1_2 - t_1_8 - 1000.000000 s_1_8  > -996.824467
t_1_2 - t_2_8 - 1000.000000 s_2_8  > -994.143200
t_2_2 - t_1_8 - 1000.000000 s_1_8  > -996.824467
t_2_2 - t_2_8 - 1000.000000 s_2_8  > -994.143200
s_1_3 + s_1_1 + 1000 r_1_1_3 >= 2
- s_1_3 - s_1_1 - 1000 r_1_1_3 >= -1001
t_1_3 - t_1_1 + 1000.000000 u_1_1_3 - 0.781076 s_1_1  + 0.781076 s_1_7  + 2000.000000 r_1_1_3 > 1.502400
s_2_3 + s_2_1 + 1000 r_2_1_3 >= 2
- s_2_3 - s_2_1 - 1000 r_2_1_3 >= -1001
t_2_3 - t_2_1 + 1000.000000 u_2_1_3 - 0.877381 s_2_1  + 0.877381 s_2_7  + 2000.000000 r_2_1_3 > 5.635357
s_1_3 + s_1_2 + 1000 r_1_2_3 >= 2
- s_1_3 - s_1_2 - 1000 r_1_2_3 >= -1001
t_1_3 - t_1_2 + 1000.000000 u_1_2_3 - 0.781076 s_1_2  + 0.781076 s_1_8  + 2000.000000 r_1_2_3 > 1.692133
s_2_3 + s_2_2 + 1000 r_2_2_3 >= 2
- s_2_3 - s_2_2 - 1000 r_2_2_3 >= -1001
t_2_3 - t_2_2 + 1000.000000 u_2_2_3 - 0.877381 s_2_2  + 0.877381 s_2_8  + 2000.000000 r_2_2_3 > 6.240928
t_1_4 - t_1_3 - 1000.781076 s_1_3  + 0.781076 s_1_8  > -998.197300
t_1_4 - t_2_3 - 1000.877381 s_2_3  + 0.877381 s_2_8  > -991.042689
t_2_4 - t_1_3 - 1000.781076 s_1_3  + 0.781076 s_1_8  > -998.197300
t_2_4 - t_2_3 - 1000.877381 s_2_3  + 0.877381 s_2_8  > -991.042689
s_1_3 + s_1_5 + 1000 r_1_3_5 >= 2
- s_1_3 - s_1_5 - 1000 r_1_3_5 >= -1001
t_1_3 - t_1_5 - 1000.000000 u_1_3_5 - 1.562152 s_1_5  + 0.781076 s_1_7  + 0.781076 s_1_8  + 2000.000000 r_1_3_5 > -998.570400
s_2_3 + s_2_5 + 1000 r_2_3_5 >= 2
- s_2_3 - s_2_5 - 1000 r_2_3_5 >= -1001
t_2_3 - t_2_5 - 1000.000000 u_2_3_5 - 1.754761 s_2_5  + 0.877381 s_2_7  + 0.877381 s_2_8  + 2000.000000 r_2_3_5 > -993.917447
t_1_6 - t_1_3 - 1000.781076 s_1_3  + 0.781076 s_1_8  > -998.197300
t_1_6 - t_2_3 - 1000.877381 s_2_3  + 0.877381 s_2_8  > -991.042689
t_2_6 - t_1_3 - 1000.781076 s_1_3  + 0.781076 s_1_8  > -998.197300
t_2_6 - t_2_3 - 1000.877381 s_2_3  + 0.877381 s_2_8  > -991.042689
s_1_3 + s_1_7 + 1000 r_1_3_7 >= 2
- s_1_3 - s_1_7 - 1000 r_1_3_7 >= -1001
t_1_3 - t_1_7 - 1000.000000 u_1_3_7 - 0.000000 s_1_7  + 2000.000000 r_1_3_7 > -997.048900
s_2_3 + s_2_7 + 1000 r_2_3_7 >= 2
- s_2_3 - s_2_7 - 1000 r_2_3_7 >= -1001
t_2_3 - t_2_7 - 1000.000000 u_2_3_7 - 0.000000 s_2_7  + 2000.000000 r_2_3_7 > -995.092700
t_1_3 - t_1_8 - 1000.000000 s_1_8  > -996.824467
t_1_3 - t_2_8 - 1000.000000 s_2_8  > -994.143200
t_2_3 - t_1_8 - 1000.000000 s_1_8  > -996.824467
t_2_3 - t_2_8 - 1000.000000 s_2_8  > -994.143200
s_1_4 + s_1_1 + 1000 r_1_1_4 >= 2
- s_1_4 - s_1_1 - 1000 r_1_1_4 >= -1001
t_1_4 - t_1_1 + 1000.000000 u_1_1_4 - 0.781076 s_1_1  + 0.781076 s_1_7  + 2000.000000 r_1_1_4 > 1.502400
s_2_4 + s_2_1 + 1000 r_2_1_4 >= 2
- s_2_4 - s_2_1 - 1000 r_2_1_4 >= -1001
t_2_4 - t_2_1 + 1000.000000 u_2_1_4 - 0.877381 s_2_1  + 0.877381 s_2_7  + 2000.000000 r_2_1_4 > 5.635357
s_1_4 + s_1_2 + 1000 r_1_2_4 >= 2
- s_1_4 - s_1_2 - 1000 r_1_2_4 >= -1001
t_1_4 - t_1_2 + 1000.000000 u_1_2_4 - 0.781076 s_1_2  + 0.781076 s_1_8  + 2000.000000 r_1_2_4 > 1.692133
s_2_4 + s_2_2 + 1000 r_2_2_4 >= 2
- s_2_4 - s_2_2 - 1000 r_2_2_4 >= -1001
t_2_4 - t_2_2 + 1000.000000 u_2_2_4 - 0.877381 s_2_2  + 0.877381 s_2_8  + 2000.000000 r_2_2_4 > 6.240928
s_1_4 + s_1_5 + 1000 r_1_4_5 >= 2
- s_1_4 - s_1_5 - 1000 r_1_4_5 >= -1001
t_1_4 - t_1_5 - 1000.000000 u_1_4_5 - 1.562152 s_1_5  + 0.781076 s_1_7  + 0.781076 s_1_8  + 2000.000000 r_1_4_5 > -998.570400
s_2_4 + s_2_5 + 1000 r_2_4_5 >= 2
- s_2_4 - s_2_5 - 1000 r_2_4_5 >= -1001
t_2_4 - t_2_5 - 1000.000000 u_2_4_5 - 1.754761 s_2_5  + 0.877381 s_2_7  + 0.877381 s_2_8  + 2000.000000 r_2_4_5 > -993.917447
t_1_6 - t_1_4 - 1001.274874 s_1_4  + 0.781076 s_1_8  + 0.493798 s_1_3  > -999.156278
t_1_6 - t_2_4 - 1001.445626 s_2_4  + 0.877381 s_2_8  + 0.568245 s_2_3  > -995.334781
t_2_6 - t_1_4 - 1001.274874 s_1_4  + 0.781076 s_1_8  + 0.493798 s_1_3  > -999.156278
t_2_6 - t_2_4 - 1001.445626 s_2_4  + 0.877381 s_2_8  + 0.568245 s_2_3  > -995.334781
s_1_4 + s_1_7 + 1000 r_1_4_7 >= 2
- s_1_4 - s_1_7 - 1000 r_1_4_7 >= -1001
t_1_4 - t_1_7 - 1000.000000 u_1_4_7 - 0.000000 s_1_7  + 2000.000000 r_1_4_7 > -997.048900
s_2_4 + s_2_7 + 1000 r_2_4_7 >= 2
- s_2_4 - s_2_7 - 1000 r_2_4_7 >= -1001
t_2_4 - t_2_7 - 1000.000000 u_2_4_7 - 0.000000 s_2_7  + 2000.000000 r_2_4_7 > -995.092700
t_1_4 - t_1_8 - 1000.000000 s_1_8  > -996.824467
t_1_4 - t_2_8 - 1000.000000 s_2_8  > -994.143200
t_2_4 - t_1_8 - 1000.000000 s_1_8  > -996.824467
t_2_4 - t_2_8 - 1000.000000 s_2_8  > -994.143200
s_1_5 + s_1_1 + 1000 r_1_1_5 >= 2
- s_1_5 - s_1_1 - 1000 r_1_1_5 >= -1001
t_1_5 - t_1_1 + 1000.000000 u_1_1_5 - 0.781076 s_1_1  + 0.781076 s_1_7  + 2000.000000 r_1_1_5 > 1.502400
s_2_5 + s_2_1 + 1000 r_2_1_5 >= 2
- s_2_5 - s_2_1 - 1000 r_2_1_5 >= -1001
t_2_5 - t_2_1 + 1000.000000 u_2_1_5 - 0.877381 s_2_1  + 0.877381 s_2_7  + 2000.000000 r_2_1_5 > 5.635357
s_1_5 + s_1_2 + 1000 r_1_2_5 >= 2
- s_1_5 - s_1_2 - 1000 r_1_2_5 >= -1001
t_1_5 - t_1_2 + 1000.000000 u_1_2_5 - 0.781076 s_1_2  + 0.781076 s_1_8  + 2000.000000 r_1_2_5 > 1.692133
s_2_5 + s_2_2 + 1000 r_2_2_5 >= 2
- s_2_5 - s_2_2 - 1000 r_2_2_5 >= -1001
t_2_5 - t_2_2 + 1000.000000 u_2_2_5 - 0.877381 s_2_2  + 0.877381 s_2_8  + 2000.000000 r_2_2_5 > 6.240928
s_1_5 + s_1_3 + 1000 r_1_3_5 >= 2
- s_1_5 - s_1_3 - 1000 r_1_3_5 >= -1001
t_1_5 - t_1_3 + 1000.000000 u_1_3_5 - 0.781076 s_1_3  + 0.781076 s_1_8  + 2000.000000 r_1_3_5 > 1.802700
s_2_5 + s_2_3 + 1000 r_2_3_5 >= 2
- s_2_5 - s_2_3 - 1000 r_2_3_5 >= -1001
t_2_5 - t_2_3 + 1000.000000 u_2_3_5 - 0.877381 s_2_3  + 0.877381 s_2_8  + 2000.000000 r_2_3_5 > 8.957311
s_1_5 + s_1_4 + 1000 r_1_4_5 >= 2
- s_1_5 - s_1_4 - 1000 r_1_4_5 >= -1001
t_1_5 - t_1_4 + 1000.000000 u_1_4_5 - 1.274874 s_1_4  + 0.781076 s_1_8  + 0.493798 s_1_3  + 2000.000000 r_1_4_5 > 0.843722
s_2_5 + s_2_4 + 1000 r_2_4_5 >= 2
- s_2_5 - s_2_4 - 1000 r_2_4_5 >= -1001
t_2_5 - t_2_4 + 1000.000000 u_2_4_5 - 1.445626 s_2_4  + 0.877381 s_2_8  + 0.568245 s_2_3  + 2000.000000 r_2_4_5 > 4.665219
t_1_6 - t_1_5 - 1001.562152 s_1_5  + 0.781076 s_1_7  + 0.781076 s_1_8  > -998.570400
t_1_6 - t_2_5 - 1001.754761 s_2_5  + 0.877381 s_2_7  + 0.877381 s_2_8  > -993.917447
t_2_6 - t_1_5 - 1001.562152 s_1_5  + 0.781076 s_1_7  + 0.781076 s_1_8  > -998.570400
t_2_6 - t_2_5 - 1001.754761 s_2_5  + 0.877381 s_2_7  + 0.877381 s_2_8  > -993.917447
t_1_5 - t_1_7 - 1000.000000 s_1_7  > -997.048900
t_1_5 - t_2_7 - 1000.000000 s_2_7  > -995.092700
t_2_5 - t_1_7 - 1000.000000 s_1_7  > -997.048900
t_2_5 - t_2_7 - 1000.000000 s_2_7  > -995.092700
t_1_5 - t_1_8 - 1000.000000 s_1_8  > -996.824467
t_1_5 - t_2_8 - 1000.000000 s_2_8  > -994.143200
t_2_5 - t_1_8 - 1000.000000 s_1_8  > -996.824467
t_2_5 - t_2_8 - 1000.000000 s_2_8  > -994.143200
s_1_7 + s_1_2 + 1000 r_1_2_7 >= 2
- s_1_7 - s_1_2 - 1000 r_1_2_7 >= -1001
t_1_7 - t_1_2 + 1000.000000 u_1_2_7 - 0.781076 s_1_2  + 0.781076 s_1_8  + 2000.000000 r_1_2_7 > 1.692133
s_2_7 + s_2_2 + 1000 r_2_2_7 >= 2
- s_2_7 - s_2_2 - 1000 r_2_2_7 >= -1001
t_2_7 - t_2_2 + 1000.000000 u_2_2_7 - 0.877381 s_2_2  + 0.877381 s_2_8  + 2000.000000 r_2_2_7 > 6.240928
s_1_7 + s_1_3 + 1000 r_1_3_7 >= 2
- s_1_7 - s_1_3 - 1000 r_1_3_7 >= -1001
t_1_7 - t_1_3 + 1000.000000 u_1_3_7 - 0.781076 s_1_3  + 0.781076 s_1_8  + 2000.000000 r_1_3_7 > 1.802700
s_2_7 + s_2_3 + 1000 r_2_3_7 >= 2
- s_2_7 - s_2_3 - 1000 r_2_3_7 >= -1001
t_2_7 - t_2_3 + 1000.000000 u_2_3_7 - 0.877381 s_2_3  + 0.877381 s_2_8  + 2000.000000 r_2_3_7 > 8.957311
s_1_7 + s_1_4 + 1000 r_1_4_7 >= 2
- s_1_7 - s_1_4 - 1000 r_1_4_7 >= -1001
t_1_7 - t_1_4 + 1000.000000 u_1_4_7 - 1.274874 s_1_4  + 0.781076 s_1_8  + 0.493798 s_1_3  + 2000.000000 r_1_4_7 > 0.843722
s_2_7 + s_2_4 + 1000 r_2_4_7 >= 2
- s_2_7 - s_2_4 - 1000 r_2_4_7 >= -1001
t_2_7 - t_2_4 + 1000.000000 u_2_4_7 - 1.445626 s_2_4  + 0.877381 s_2_8  + 0.568245 s_2_3  + 2000.000000 r_2_4_7 > 4.665219
s_1_7 + s_1_8 + 1000 r_1_7_8 >= 2
- s_1_7 - s_1_8 - 1000 r_1_7_8 >= -1001
t_1_7 - t_1_8 - 1000.000000 u_1_7_8 - 0.000000 s_1_8  + 2000.000000 r_1_7_8 > -996.824467
s_2_7 + s_2_8 + 1000 r_2_7_8 >= 2
- s_2_7 - s_2_8 - 1000 r_2_7_8 >= -1001
t_2_7 - t_2_8 - 1000.000000 u_2_7_8 - 0.000000 s_2_8  + 2000.000000 r_2_7_8 > -994.143200
s_1_8 + s_1_1 + 1000 r_1_1_8 >= 2
- s_1_8 - s_1_1 - 1000 r_1_1_8 >= -1001
t_1_8 - t_1_1 + 1000.000000 u_1_1_8 - 0.781076 s_1_1  + 0.781076 s_1_7  + 2000.000000 r_1_1_8 > 1.502400
s_2_8 + s_2_1 + 1000 r_2_1_8 >= 2
- s_2_8 - s_2_1 - 1000 r_2_1_8 >= -1001
t_2_8 - t_2_1 + 1000.000000 u_2_1_8 - 0.877381 s_2_1  + 0.877381 s_2_7  + 2000.000000 r_2_1_8 > 5.635357
s_1_8 + s_1_7 + 1000 r_1_7_8 >= 2
- s_1_8 - s_1_7 - 1000 r_1_7_8 >= -1001
t_1_8 - t_1_7 + 1000.000000 u_1_7_8 - 0.000000 s_1_7  + 2000.000000 r_1_7_8 > 2.951100
s_2_8 + s_2_7 + 1000 r_2_7_8 >= 2
- s_2_8 - s_2_7 - 1000 r_2_7_8 >= -1001
t_2_8 - t_2_7 + 1000.000000 u_2_7_8 - 0.000000 s_2_7  + 2000.000000 r_2_7_8 > 4.907300
Binary
s_1_1
s_2_1
s_1_2
s_2_2
s_1_3
s_2_3
s_1_4
s_2_4
s_1_5
s_2_5
s_1_6
s_2_6
s_1_7
s_2_7
s_1_8
s_2_8
u_1_1_2
r_1_1_2
u_2_1_2
r_2_1_2
u_1_1_3
r_1_1_3
u_2_1_3
r_2_1_3
u_1_1_4
r_1_1_4
u_2_1_4
r_2_1_4
u_1_1_5
r_1_1_5
u_2_1_5
r_2_1_5
u_1_1_8
r_1_1_8
u_2_1_8
r_2_1_8
u_1_2_3
r_1_2_3
u_2_2_3
r_2_2_3
u_1_2_4
r_1_2_4
u_2_2_4
r_2_2_4
u_1_2_5
r_1_2_5
u_2_2_5
r_2_2_5
u_1_2_7
r_1_2_7
u_2_2_7
r_2_2_7
u_1_3_5
r_1_3_5
u_2_3_5
r_2_3_5
u_1_3_7
r_1_3_7
u_2_3_7
r_2_3_7
u_1_4_5
r_1_4_5
u_2_4_5
r_2_4_5
u_1_4_7
r_1_4_7
u_2_4_7
r_2_4_7
u_1_7_8
r_1_7_8
u_2_7_8
r_2_7_8

End
